\ENCODING=ISO-8859-1
\Problem name: instances

Maximize
 obj:
Subject To
 c1: 674 x1 + 563 x2 + 755 x3 + 370 x4 + 472 x5 + 152 x6 + 138 x7 + 314 x8
     + 449 x9 + 183 x10 + 214 x11 + 575 x12 + 15 x13 + 120 x14 + 662 x15
     + 173 x16 + 736 x17 + 536 x18 + 680 x19 + 545 x20 + 285 x21 + 635 x22
     + 331 x23 + 215 x24 + 507 x25 + 591 x26 + 763 x27 + 552 x28 + 493 x29
     + 809 x30 + 273 x31 + 167 x32 + 371 x33 + 28 x34 + 536 x35 + 843 x36
     + 179 x37 + 674 x38 + 157 x39 + 628 x40 + 857 x41 + 370 x42 + 202 x43
     + 872 x44 + 489 x45 + 864 x46 + 44 x47 + 225 x48 + 400 x49 + 724 x50
     + 770 x51 + 684 x52 + 358 x53 + 100 x54 + 899 x55 + 865 x56 + 691 x57
     + 661 x58 + 417 x59 + 184 x60 + 470 x61 + 690 x62 + 350 x63 + 840 x64
     + 717 x65 + 886 x66 + 682 x67 + 896 x68 + 559 x69 + 838 x70 + 524 x71
     + 415 x72 + 208 x73 + 725 x74 + 286 x75 + 697 x76 + 589 x77 + 330 x78
     + 922 x79 + 988 x80 + 54 x81 + 691 x82 + 671 x83 + 412 x84 + 791 x85
     + 569 x86 + 276 x87 + 481 x88 + 230 x89 + 693 x90 <= 22759
Bounds
 0 <= x1 <= 1
 0 <= x2 <= 1
 0 <= x3 <= 1
 0 <= x4 <= 1
 0 <= x5 <= 1
 0 <= x6 <= 1
 0 <= x7 <= 1
 0 <= x8 <= 1
 0 <= x9 <= 1
 0 <= x10 <= 1
 0 <= x11 <= 1
 0 <= x12 <= 1
 0 <= x13 <= 1
 0 <= x14 <= 1
 0 <= x15 <= 1
 0 <= x16 <= 1
 0 <= x17 <= 1
 0 <= x18 <= 1
 0 <= x19 <= 1
 0 <= x20 <= 1
 0 <= x21 <= 1
 0 <= x22 <= 1
 0 <= x23 <= 1
 0 <= x24 <= 1
 0 <= x25 <= 1
 0 <= x26 <= 1
 0 <= x27 <= 1
 0 <= x28 <= 1
 0 <= x29 <= 1
 0 <= x30 <= 1
 0 <= x31 <= 1
 0 <= x32 <= 1
 0 <= x33 <= 1
 0 <= x34 <= 1
 0 <= x35 <= 1
 0 <= x36 <= 1
 0 <= x37 <= 1
 0 <= x38 <= 1
 0 <= x39 <= 1
 0 <= x40 <= 1
 0 <= x41 <= 1
 0 <= x42 <= 1
 0 <= x43 <= 1
 0 <= x44 <= 1
 0 <= x45 <= 1
 0 <= x46 <= 1
 0 <= x47 <= 1
 0 <= x48 <= 1
 0 <= x49 <= 1
 0 <= x50 <= 1
 0 <= x51 <= 1
 0 <= x52 <= 1
 0 <= x53 <= 1
 0 <= x54 <= 1
 0 <= x55 <= 1
 0 <= x56 <= 1
 0 <= x57 <= 1
 0 <= x58 <= 1
 0 <= x59 <= 1
 0 <= x60 <= 1
 0 <= x61 <= 1
 0 <= x62 <= 1
 0 <= x63 <= 1
 0 <= x64 <= 1
 0 <= x65 <= 1
 0 <= x66 <= 1
 0 <= x67 <= 1
 0 <= x68 <= 1
 0 <= x69 <= 1
 0 <= x70 <= 1
 0 <= x71 <= 1
 0 <= x72 <= 1
 0 <= x73 <= 1
 0 <= x74 <= 1
 0 <= x75 <= 1
 0 <= x76 <= 1
 0 <= x77 <= 1
 0 <= x78 <= 1
 0 <= x79 <= 1
 0 <= x80 <= 1
 0 <= x81 <= 1
 0 <= x82 <= 1
 0 <= x83 <= 1
 0 <= x84 <= 1
 0 <= x85 <= 1
 0 <= x86 <= 1
 0 <= x87 <= 1
 0 <= x88 <= 1
 0 <= x89 <= 1
 0 <= x90 <= 1
Binaries
 x1  x2  x3  x4  x5  x6  x7  x8  x9  x10  x11  x12  x13  x14  x15  x16  x17 
 x18  x19  x20  x21  x22  x23  x24  x25  x26  x27  x28  x29  x30  x31  x32 
 x33  x34  x35  x36  x37  x38  x39  x40  x41  x42  x43  x44  x45  x46  x47 
 x48  x49  x50  x51  x52  x53  x54  x55  x56  x57  x58  x59  x60  x61  x62 
 x63  x64  x65  x66  x67  x68  x69  x70  x71  x72  x73  x74  x75  x76  x77 
 x78  x79  x80  x81  x82  x83  x84  x85  x86  x87  x88  x89  x90 
End
